
Gurobi 7.0.2 (linux64, Matlab) logging started Sun Sep  2 08:55:06 2018


Gurobi 7.0.2 (linux64) logging started Sun Sep  2 08:55:07 2018

Optimize a model with 5524 rows, 10650 columns and 159548 nonzeros
Coefficient statistics:
  Matrix range     [1e+00, 8e+00]
  Objective range  [1e+04, 8e+05]
  Bounds range     [1e+00, 2e+01]
  RHS range        [1e+00, 2e+02]
Iteration    Objective       Primal Inf.    Dual Inf.      Time
       0    4.5980135e+07   0.000000e+00   4.159999e-02      0s
      32    4.5980135e+07   0.000000e+00   0.000000e+00      0s

Solved in 32 iterations and 0.03 seconds
Optimal objective  4.598013542e+07
